12 25
4 0 2 4 6 8 10
4 1 3 5 7 9
3 8 9 10 11
3 7 8 9
3 5 7 
3 2
3 0 5 6 7 8
2 11
2 0 7 
2 2 6 7 8
2 4 5 8
2 0 1
1 2 3 
1 3 4
1 1 2 3 
1 6 7 8 9
1 9 10
1 5 6 7 8 
1 8 9 
1 0 4 8 9
1 3 5 7
1 1 5 8 9  
1 2 3 6 7
1 3 6
1 4 8 9 10